ID_groupA,ID_groupB,ID_groupC,ID_groupD
10065,9822,10832,3322
10065,9822,109,9301
8611,9822,109,9301
10065,9822,13398,9301
19730,9822,10832,9301
10065,9822,10832,9301
10065,9822,10832,19221
10065,9822,10832,9301
10065,9822,6088,9301
10065,258,18880,3322
10065,9822,10832,9301
10065,9822,109,9301
10065,9822,10832,9301
10065,9822,13398,9301
10065,9822,109,9301
8611,9822,109,9301
10065,9822,13398,9301
19730,9822,10832,9301
10065,9822,10832,9301
10065,9822,10832,9301
10065,258,10832,3322
10065,9822,6088,9301
10065,9822,18880,3322
16138,9822,10832,9301
10065,9822,10832,9301
10065,9822,10832,9301
10065,9822,13398,9301
8611,9822,109,9301
16138,9822,109,9301
19730,9822,109,9301
16138,9822,109,9301
16138,9822,109,9301
10065,9822,109,3322
10065,9822,109,9301
10065,9822,109,3322
16138,9822,109,9301
10065,9822,109,9301
16138,9822,109,9301
16138,9822,109,9301
8611,9822,109,9301
19730,9822,109,9301
8611,9822,109,9301
8611,9822,109,19221
8611,9822,109,9301
8611,9822,109,9301
8611,9822,109,9301
8611,9822,109,9301
8611,9822,109,9301
8611,9822,109,9301
8611,9822,109,9301
19730,9822,13398,9301
16138,9822,13398,9301
16138,9822,13398,9301
10065,9822,13398,3322
10065,9822,6088,9301
10065,9822,13398,3322
16138,9822,13398,9301
16138,9822,13398,9301
16138,9822,13398,9301
16138,9822,13398,9301
19730,9822,10832,9301
19730,9822,10832,9301
19730,9822,10832,9301
19730,9822,6088,9301
10065,258,18880,3322
19730,9822,10832,9301
19730,9822,10832,9301
19730,9822,10832,9301
19730,9822,13398,9301
10065,9822,10832,9301
10065,9822,10832,9301
10065,9822,6088,9301
10065,9822,18880,3322
16138,9822,10832,9301
10065,9822,10832,9301
10065,9822,10832,9301
10065,9822,13398,9301
10065,9822,10832,3322
10065,9822,6088,9301
10065,9822,18880,3322
16138,9822,13398,9301
16138,9822,109,9301
10065,9822,10832,9301
16138,9822,13398,9301
10065,258,6088,3322
10065,258,18880,3322
16138,258,18880,3322
10065,258,10832,3322
10065,9822,10832,3322
10065,9822,13398,3322
10065,9822,6088,3322
16138,9822,6088,9301
10065,9822,6088,9301
10065,9822,6088,9301
10065,9822,6088,9301
16138,258,18880,19260
10065,9822,18880,3322
10065,9822,18880,3322
10065,9822,13398,3322
16138,9822,109,9301
16138,9822,10832,9301
16138,9822,13398,9301
10065,6396,10832,9301
10065,6396,10832,9301
16138,9822,13398,9301
